Copyright (C) 2013-2015, Filipe Brandao
Build (method = -2)
  #dp: 51959
  Step-3' Graph: 778 vertices and 25367 arcs (0.14s)
  Step-4' Graph: 771 vertices and 25353 arcs (0.15s)
  #V4/#V3 = 0.99
  #A4/#A3 = 1.00
Ready! (0.15s)
Optimize a model with 931 rows, 25354 columns and 74524 nonzeros
Presolve removed 62 rows and 62 columns
Presolve time: 0.13s
Presolved: 869 rows, 25292 columns, 74353 nonzeros
Variable types: 0 continuous, 25292 integer (20040 binary)
Found heuristic solution: objective 123.0000000
Optimize a model with 869 rows, 25292 columns and 74353 nonzeros
Presolved: 869 rows, 25292 columns, 74353 nonzeros

Root barrier log...

Ordering time: 0.02s

Barrier statistics:
 AA' NZ     : 5.607e+04
 Factor NZ  : 2.161e+05 (roughly 12 MBytes of memory)
 Factor Ops : 7.785e+07 (less than 1 second per iteration)
 Threads    : 1

                  Objective                Residual
Iter       Primal          Dual         Primal    Dual     Compl     Time
   0   7.84507261e+03 -6.52711115e+04  4.11e+04 1.05e-01  1.91e+01     0s
   1   2.06730983e+03 -2.47713536e+04  5.61e+03 6.66e-16  2.88e+00     0s
   2   9.26913732e+02 -1.39526550e+04  1.47e+03 2.00e-02  8.90e-01     0s
   3   5.52050638e+02 -5.91515456e+03  3.40e+02 7.32e-03  2.55e-01     0s
   4   2.81013986e+02 -6.45481981e+02  3.48e+01 5.89e-04  3.00e-02     0s
   5   1.57230443e+02 -1.98824953e+02  1.03e+01 1.74e-04  1.02e-02     0s
   6   1.03999768e+02 -7.74284447e+01  3.02e+00 7.13e-05  4.38e-03     0s
   7   9.29356802e+01 -7.13764470e+00  1.94e+00 1.92e-05  2.37e-03     0s
   8   8.64626186e+01  1.96365737e+01  1.36e+00 3.70e-16  1.55e-03     0s
   9   8.13958121e+01  3.87528065e+01  1.02e+00 2.22e-16  9.76e-04     0s
  10   7.57336698e+01  4.79268060e+01  5.91e-01 2.52e-16  6.14e-04     0s
  11   7.36549067e+01  5.56944154e+01  3.99e-01 3.61e-16  3.89e-04     0s
  12   7.02418036e+01  5.80724716e+01  2.14e-01 3.45e-16  2.57e-04     0s
  13   6.95549450e+01  6.02328375e+01  1.73e-01 2.58e-16  1.95e-04     0s
  14   6.88638302e+01  6.20684797e+01  1.34e-01 2.53e-16  1.41e-04     0s
  15   6.84413671e+01  6.38304381e+01  8.76e-02 2.11e-16  9.46e-05     0s
  16   6.77547527e+01  6.43819737e+01  4.67e-02 2.22e-16  6.83e-05     0s
  17   6.74713745e+01  6.51476428e+01  2.56e-02 2.64e-16  4.67e-05     0s
  18   6.73153149e+01  6.59047161e+01  1.39e-02 1.65e-16  2.82e-05     0s
  19   6.72768398e+01  6.61729150e+01  1.15e-02 2.22e-16  2.20e-05     0s
  20   6.72274041e+01  6.64180863e+01  8.48e-03 2.37e-16  1.61e-05     0s
  21   6.71584134e+01  6.65875830e+01  4.83e-03 2.32e-16  1.14e-05     0s
  22   6.71324088e+01  6.67235227e+01  3.63e-03 1.48e-16  8.13e-06     0s
  23   6.71252873e+01  6.67647258e+01  3.29e-03 3.33e-16  7.17e-06     1s
  24   6.71004068e+01  6.68270092e+01  2.51e-03 2.08e-16  5.43e-06     1s
  25   6.70828369e+01  6.68709535e+01  1.95e-03 2.22e-16  4.21e-06     1s
  26   6.70708319e+01  6.68993611e+01  1.60e-03 2.22e-16  3.41e-06     1s
  27   6.70634770e+01  6.69289612e+01  1.39e-03 2.00e-16  2.67e-06     1s
  28   6.70566140e+01  6.69380603e+01  1.13e-03 2.16e-16  2.35e-06     1s
  29   6.70417462e+01  6.69502929e+01  7.32e-04 2.93e-16  1.81e-06     1s
  30   6.70380608e+01  6.69577499e+01  6.40e-04 2.37e-16  1.59e-06     1s
  31   6.70337524e+01  6.69633156e+01  5.60e-04 1.85e-16  1.40e-06     1s
  32   6.70286425e+01  6.69677079e+01  4.53e-04 2.22e-16  1.21e-06     1s
  33   6.70256826e+01  6.69769399e+01  3.78e-04 2.22e-16  9.67e-07     1s
  34   6.70224154e+01  6.69835783e+01  3.04e-04 2.22e-16  7.70e-07     1s
  35   6.70155007e+01  6.69896860e+01  1.94e-04 2.35e-16  5.12e-07     1s
  36   6.70093253e+01  6.69950252e+01  1.07e-04 3.33e-16  2.84e-07     1s
  37   6.70035560e+01  6.69976996e+01  3.91e-05 2.14e-16  1.16e-07     1s
  38   6.70001784e+01  6.69997986e+01  1.18e-06 3.15e-16  7.52e-09     1s
  39   6.70000002e+01  6.69999998e+01  1.78e-13 3.33e-16  7.57e-12     1s
  40   6.70000000e+01  6.70000000e+01  9.34e-13 2.22e-16  7.57e-15     1s

Barrier solved model in 40 iterations and 0.84 seconds
Optimal objective 6.70000000e+01


Root relaxation: objective 6.700000e+01, 881 iterations, 0.86 seconds

    Nodes    |    Current Node    |     Objective Bounds      |     Work
 Expl Unexpl |  Obj  Depth IntInf | Incumbent    BestBd   Gap | It/Node Time

     0     0   67.00000    0  167  123.00000   67.00000  45.5%     -    1s
H    0     0                      68.0000000   67.00000  1.47%     -    2s
     0     0   67.00000    0   93   68.00000   67.00000  1.47%     -    3s
     0     0   67.00000    0  114   68.00000   67.00000  1.47%     -    3s
     0     0   67.00000    0  153   68.00000   67.00000  1.47%     -    3s
     0     0   67.00000    0  152   68.00000   67.00000  1.47%     -    3s
     0     0   67.00000    0  152   68.00000   67.00000  1.47%     -    3s
     0     0   67.00000    0  159   68.00000   67.00000  1.47%     -    3s
     0     0   67.00000    0   93   68.00000   67.00000  1.47%     -    3s
     0     2   67.00000    0   93   68.00000   67.00000  1.47%     -    3s
  1142   111 infeasible   28        68.00000   67.00000  1.47%  26.6    5s
* 2788     3              35      67.0000000   67.00000  0.00%  21.4    6s

Cutting planes:
  Clique: 1

Explored 2789 nodes (63378 simplex iterations) in 6.35 seconds
Thread count was 1 (of 4 available processors)

Optimal solution found (tolerance 0.00e+00)
Best objective 6.700000000000e+01, best bound 6.700000000000e+01, gap 0.0%
Preprocessing time: 0.19 seconds
Gurobi run time: 6.35 seconds
Total run time: 6.54 seconds
Objective: 67
Solution:
1 x [i=1, i=124, i=144]
1 x [i=2, i=129, i=139]
1 x [i=3, i=115, i=153]
1 x [i=4, i=113, i=153]
1 x [i=5, i=123, i=140]
1 x [i=6, i=100]
1 x [i=7, i=119, i=145]
1 x [i=8, i=98]
1 x [i=9, i=97]
1 x [i=10, i=108, i=155]
1 x [i=11, i=102, i=157]
1 x [i=12, i=95]
1 x [i=13, i=96, i=158]
1 x [i=14, i=123, i=135]
1 x [i=15, i=91]
1 x [i=16, i=88]
1 x [i=17, i=89, i=160]
1 x [i=18, i=123, i=130]
1 x [i=19, i=109, i=146]
1 x [i=20, i=103, i=148]
1 x [i=21, i=120, i=131]
1 x [i=21, i=122, i=125]
1 x [i=22, i=83]
1 x [i=23, i=110, i=142]
1 x [i=24, i=81]
1 x [i=25, i=80]
1 x [i=26, i=78]
1 x [i=27, i=75]
1 x [i=28, i=102, i=143]
1 x [i=29, i=73]
1 x [i=30, i=92, i=148]
1 x [i=30, i=104, i=141]
1 x [i=31, i=109, i=137]
1 x [i=32, i=70]
1 x [i=33, i=99, i=144]
1 x [i=34, i=69]
1 x [i=34, i=74, i=159]
1 x [i=35, i=87, i=149]
1 x [i=36, i=66]
1 x [i=37, i=114, i=128]
1 x [i=38, i=63]
1 x [i=38, i=112, i=126]
1 x [i=39, i=76, i=152]
1 x [i=40, i=61]
1 x [i=41, i=79, i=150]
1 x [i=41, i=114, i=124]
1 x [i=42, i=60]
1 x [i=43, i=82, i=147]
1 x [i=44, i=58]
1 x [i=45, i=72, i=151]
1 x [i=46, i=68, i=154]
1 x [i=47, i=111, i=121]
1 x [i=48, i=93, i=136]
1 x [i=49, i=56]
1 x [i=50, i=55]
1 x [i=51, i=116, i=118]
1 x [i=52, i=94, i=134]
1 x [i=53, i=101, i=127]
1 x [i=54, i=62, i=156]
1 x [i=57, i=67, i=148]
1 x [i=59, i=105, i=120]
1 x [i=64, i=77, i=138]
1 x [i=65, i=85, i=132]
1 x [i=68, i=86, i=125]
1 x [i=71, i=74, i=133]
1 x [i=80, i=106, i=107]
1 x [i=84, i=90, i=117]
